rectOffsets = 
    [|0,0,3,3|0,0,3,3|0,0,3,4|0,0,4,3|0,0,3,5|0,0,5,3|0,0,3,6|0,0,6,3|0,0,3,7|0,0,7,3|0,0,3,8|0,0,8,3|0,0,3,9|0,0,9,3|0,0,3,10|0,0,10,3|0,0,3,14|0,0,14,3|0,0,3,18|0,0,18,3|0,0,4,4|0,0,4,4|0,0,4,6|0,0,6,4|0,0,4,11|0,0,11,4|0,0,5,6|0,0,6,5|0,0,5,15|0,0,15,5|];

shape = array1d(1..30, [{1}, {2}, {3}, {4}, {5}, {6}, {7}, {8}, {9}, {10},
    {11}, {12}, {13}, {14}, {15}, {16}, {17}, {18}, {19}, {20}, {21},
    {22}, {23}, {24}, {25}, {26}, {27}, {28}, {29}, {30}]);

validshapes = array1d(1..15, [{1,2}, {3,4}, {5,6}, {7,8}, {9,10}, {11,12}, {13,14},
    {15,16}, {17,18}, {19,20}, {21,22}, {23,24}, {25,26}, {27,28},
    {29,30}]);

dx = array1d(1..15, [3, 3, 3, 3, 3, 3, 3, 3, 3, 3, 4, 4, 4, 5, 5]);

dy = array1d(1..15, [3, 4, 5, 6, 7, 8, 9, 10, 14, 18, 4, 6, 11, 6, 15]);

w = 21;

n = 15;

o = 30;

